solving instance uflp nldep holmberg 54 sincos
Set parameter TokenServer to value "licences.gerad.lan"
Set parameter MIPGap to value 1e-06
Set parameter FuncPieceError to value 1e-06
Set parameter Threads to value 1
Set parameter FuncPieces to value -2
Set parameter TimeLimit to value 3600
Gurobi Optimizer version 12.0.2 build v12.0.2rc0 (linux64 - "AlmaLinux 9.6 (Sage Margay)")

CPU model: Intel(R) Xeon(R) Gold 6258R CPU @ 2.70GHz, instruction set [SSE2|AVX|AVX2|AVX512]
Thread count: 56 physical cores, 56 logical processors, using up to 1 threads

Non-default parameters:
TimeLimit  3600
MIPGap  1e-06
Threads  1
FuncPieces  -2
FuncPieceError  1e-06

Optimize a model with 1140 rows, 1070 columns and 4090 nonzeros
Model fingerprint: 0x7117dfa0
Model has 20 function constraints treated as nonlinear
  10 SIN, 10 COS
Variable types: 1060 continuous, 10 integer (10 binary)
Coefficient statistics:
  Matrix range     [2e-01, 2e+02]
  Objective range  [1e+00, 5e+02]
  Bounds range     [1e+00, 1e+10]
  RHS range        [1e+00, 2e+02]
Warning: Model contains large bounds
         Consider reformulating model or setting NumericFocus parameter
         to avoid numerical issues.
Presolve removed 20 rows and 20 columns
Presolve time: 0.01s
Presolved: 1280 rows, 1051 columns, 4350 nonzeros
Presolved model has 20 nonlinear constraint(s)

Solving non-convex MINLP

Variable types: 1041 continuous, 10 integer (10 binary)
Found heuristic solution: objective 18396.012017

Root relaxation: objective 5.271683e+03, 61 iterations, 0.00 seconds (0.00 work units)

    Nodes    |    Current Node    |     Objective Bounds      |     Work
 Expl Unexpl |  Obj  Depth IntInf | Incumbent    BestBd   Gap | It/Node Time

     0     0 5271.68344    0   20 18396.0120 5271.68344  71.3%     -    0s
H    0     0                    5839.6453372 5271.68344  9.73%     -    0s
     0     0 5276.99203    0   12 5839.64534 5276.99203  9.64%     -    0s
     0     0 5276.99203    0   12 5839.64534 5276.99203  9.64%     -    0s
     0     2 5337.91061    0   12 5839.64534 5337.91061  8.59%     -    0s
*  113    58              58    5838.9465140 5464.70598  6.41%  12.0    0s
*  114    35              58    5838.8146988 5464.70598  6.41%  11.9    0s

Explored 379 nodes (7215 simplex iterations) in 0.57 seconds (0.34 work units)
Thread count was 1 (of 56 available processors)

Solution count 4: 5838.81 5838.95 5839.65 18396 

Optimal solution found (tolerance 1.00e-06)
Best objective 5.838814698846e+03, best bound 5.838814698846e+03, gap 0.0000%

User-callback calls 1351, time in user-callback 0.00 sec
reading holmberg data file ../../../../../instances/uflp/holmberg/p54
primal_bound = 5838.814698846133, dual_bound = 5838.814698846134, gap = 1.5576700900486916e-14, time = 0.58
OPTIMAL LOCATIONS:
y[1] = 1.0
y[2] = 1.0
y[3] = 1.0
y[4] = 1.0
y[5] = 1.0
y[6] = 1.0
y[7] = 1.0
y[8] = 1.0
y[9] = 1.0
y[10] = 1.0
OPTIMAL WAREHOUSING:
f[1] = 240.0
f[2] = 130.0
f[3] = 220.0
f[4] = 250.0
f[5] = 140.0
f[6] = 100.0
f[7] = 260.0
f[8] = 90.0
f[9] = 130.0
f[10] = 250.0
OPTIMAL WAREHOUSING COSTS:
nlobj[1] = 58.03261879557394
nlobj[2] = 23.542503966165427
nlobj[3] = 65.6010957501932
nlobj[4] = 77.59029178403324
nlobj[5] = 40.713814862272244
nlobj[6] = 20.955308589883657
nlobj[7] = 75.66605844707428
nlobj[8] = 22.977399811726798
nlobj[9] = 23.39025456220881
nlobj[10] = 55.34535227700155
OPTIMAL ASSIGNMENTS:
x[1, 70] = 1.0
x[1, 71] = 1.0
x[1, 72] = 1.0
x[1, 73] = 1.0
x[1, 74] = 1.0
x[1, 76] = 1.0
x[1, 77] = 1.0
x[1, 78] = 1.0
x[1, 79] = 1.0
x[1, 80] = 1.0
x[1, 81] = 1.0
x[1, 82] = 1.0
x[1, 83] = 1.0
x[2, 20] = 1.0
x[2, 21] = 1.0
x[2, 22] = 1.0
x[2, 23] = 1.0
x[2, 25] = 1.0
x[2, 26] = 1.0
x[2, 28] = 1.0
x[3, 9] = 1.0
x[3, 10] = 1.0
x[3, 11] = 1.0
x[3, 12] = 1.0
x[3, 13] = 1.0
x[3, 14] = 1.0
x[3, 15] = 1.0
x[3, 16] = 1.0
x[3, 17] = 1.0
x[3, 18] = 1.0
x[3, 19] = 1.0
x[4, 24] = 1.0
x[4, 27] = 1.0
x[4, 29] = 1.0
x[4, 30] = 1.0
x[4, 31] = 1.0
x[4, 32] = 1.0
x[4, 33] = 1.0
x[4, 34] = 1.0
x[4, 35] = 1.0
x[4, 36] = 1.0
x[4, 37] = 1.0
x[4, 38] = 1.0
x[4, 39] = 1.0
x[4, 52] = 1.0
x[5, 84] = 1.0
x[5, 85] = 1.0
x[5, 86] = 1.0
x[5, 87] = 1.0
x[5, 88] = 1.0
x[5, 89] = 1.0
x[5, 90] = 1.0
x[5, 91] = 1.0
x[6, 62] = 1.0
x[6, 63] = 1.0
x[6, 65] = 1.0
x[6, 66] = 1.0
x[6, 67] = 1.0
x[7, 40] = 1.0
x[7, 41] = 1.0
x[7, 53] = 1.0
x[7, 54] = 1.0
x[7, 55] = 1.0
x[7, 56] = 1.0
x[7, 57] = 1.0
x[7, 58] = 1.0
x[7, 59] = 1.0
x[7, 60] = 1.0
x[7, 61] = 1.0
x[7, 64] = 1.0
x[7, 68] = 1.0
x[7, 69] = 1.0
x[8, 3] = 1.0
x[8, 4] = 1.0
x[8, 5] = 1.0
x[8, 6] = 1.0
x[8, 7] = 1.0
x[8, 8] = 1.0
x[9, 42] = 1.0
x[9, 43] = 1.0
x[9, 44] = 1.0
x[9, 45] = 1.0
x[9, 46] = 1.0
x[9, 47] = 1.0
x[9, 48] = 1.0
x[9, 49] = 1.0
x[9, 50] = 1.0
x[9, 51] = 1.0
x[10, 1] = 1.0
x[10, 2] = 1.0
x[10, 75] = 1.0
x[10, 92] = 1.0
x[10, 93] = 1.0
x[10, 94] = 1.0
x[10, 95] = 1.0
x[10, 96] = 1.0
x[10, 97] = 1.0
x[10, 98] = 1.0
x[10, 99] = 1.0
x[10, 100] = 1.0
fixed costs = 3877.0
assignment costs = 5375.0
warehousing costs = 463.8146988461332
total cost = 5838.814698846133
